913300
53, 8, 91, 55, 44, 72, 63, 13, 68, 38, 76, 87, 45, 81, 86, 14, 92, 84, 22, 73, 78, 25, 51, 29, 79, 40, 94, 26, 12, 17, 19, 43, 24, 59, 90, 71, 34, 28, 46, 11, 23, 54, 98, 65, 52, 39, 7, 4, 66, 47, 95, 57, 33, 9, 21, 20, 96, 30, 77, 18, 41, 6, 75, 69, 56, 10, 49, 93, 62, 31, 60, 32, 74, 70, 1, 48, 37, 80, 99, 36, 50, 88, 83, 15, 16, 82, 61, 58, 67, 97, 35, 42, 2, 27, 64, 3, 5, 89, 85
